N = 11;
H = 5;
T = 2;

avail = array3d(1..N, 1..H, 1..T, [5, 0, 2, 1, 10, 10, 7, 1, 3, 7, 6, 4, 10, 7, 4, 1, 6, 3, 8, 0, 7, 1, 2, 10, 8, 3, 7, 8, 4, 8, 8, 0, 6, 9, 2, 6, 4, 10, 10, 0, 6, 7, 8, 9, 2, 0, 3, 2, 5, 1, 6, 5, 3, 2, 6, 10, 10, 6, 1, 1, 5, 2, 8, 6, 7, 7, 0, 8, 2, 10, 3, 6, 2, 3, 8, 7, 7, 0, 4, 0, 6, 7, 7, 5, 9, 6, 7, 9, 1, 9, 6, 6, 8, 7, 10, 5, 0, 3, 4, 9, 7, 3, 7, 5, 10, 0, 4, 3, 10, 5]);

r = array2d(1..H, 1..T, [1, 2, 5, 1, 1, 4, 3, 0, 2, 2]);
